p cnf 126 417
c t mc
-1 2 -3 0
1 -2 -3 0
-1 -2 3 0
1 2 3 0
7 -5 0
7 6 0
5 -6 -7 0
-10 8 0
-10 9 0
-8 -9 10 0
-7 10 -11 0
7 -10 -11 0
-7 -10 11 0
7 10 11 0
-12 4 0
-12 11 0
-4 -11 12 0
3 -12 -13 0
-3 12 -13 0
3 12 13 0
-3 -12 13 0
-14 -10 0
-14 -11 0
10 11 14 0
18 -17 0
18 -1 0
17 1 -18 0
-19 -7 0
-19 18 0
7 -18 19 0
-16 -19 -20 0
16 19 -20 0
-16 19 20 0
16 -19 20 0
-21 -15 0
-21 -20 0
15 20 21 0
21 -2 -22 0
-21 2 -22 0
21 2 22 0
-21 -2 22 0
14 -22 -23 0
-14 22 -23 0
14 22 23 0
-14 -22 23 0
26 -25 0
26 2 0
25 -2 -26 0
27 -26 0
27 20 0
26 -20 -27 0
24 -27 -28 0
-24 27 -28 0
24 27 28 0
-24 -27 28 0
-29 23 0
-29 -28 0
-23 28 29 0
-32 5 0
-32 -31 0
-5 31 32 0
33 -30 0
33 -32 0
30 32 -33 0
34 16 -35 0
-34 -16 -35 0
34 -16 35 0
-34 16 35 0
-36 33 0
-36 35 0
-33 -35 36 0
-37 -29 0
-37 36 0
29 -36 37 0
-13 -37 -38 0
13 37 -38 0
-13 37 38 0
13 -37 38 0
40 -5 0
40 39 0
5 -39 -40 0
-1 -7 -41 0
1 7 -41 0
-1 7 41 0
1 -7 41 0
42 -19 0
42 41 0
19 -41 -42 0
-40 42 -43 0
40 -42 -43 0
-40 -42 43 0
40 42 43 0
44 -25 0
44 -1 0
25 1 -44 0
-46 44 0
-46 -45 0
-44 45 46 0
-47 43 0
-47 46 0
-43 -46 47 0
-48 1 0
-48 -16 0
-1 16 48 0
-49 48 0
-49 19 0
-48 -19 49 0
-27 -49 -50 0
27 49 -50 0
-27 49 50 0
27 -49 50 0
52 -51 0
52 -19 0
51 19 -52 0
53 -49 0
53 -52 0
49 52 -53 0
-54 -50 0
-54 -53 0
50 53 54 0
-55 -47 0
-55 54 0
47 -54 55 0
-56 1 0
-56 -16 0
-1 16 56 0
57 55 0
57 56 0
-55 -56 -57 0
58 -1 0
58 -7 0
1 7 -58 0
59 -58 0
59 30 0
58 -30 -59 0
-6 -39 -60 0
6 39 -60 0
-6 39 60 0
6 -39 60 0
-61 59 0
-61 -60 0
-59 60 61 0
-62 39 0
-62 -15 0
-39 15 62 0
-63 -62 0
-63 -34 0
62 34 63 0
64 51 0
64 -63 0
-51 63 -64 0
-65 61 0
-65 64 0
-61 -64 65 0
44 16 -66 0
-44 -16 -66 0
44 -16 66 0
-44 16 66 0
-65 66 -67 0
65 -66 -67 0
-65 -66 67 0
65 66 67 0
26 7 -68 0
-26 -7 -68 0
26 -7 68 0
-26 7 68 0
-69 68 0
-69 -11 0
-68 11 69 0
70 34 0
70 -69 0
-34 69 -70 0
-71 67 0
-71 -70 0
-67 70 71 0
49 -41 -72 0
-49 41 -72 0
49 41 72 0
-49 -41 72 0
-40 -9 -73 0
40 9 -73 0
-40 9 73 0
40 -9 73 0
74 -73 0
74 -34 0
73 34 -74 0
-75 51 0
-75 -49 0
-51 49 75 0
-74 75 -76 0
74 -75 -76 0
-74 -75 76 0
74 75 76 0
-77 -72 0
-77 -76 0
72 76 77 0
78 -10 0
78 -58 0
10 58 -78 0
79 -40 0
79 -78 0
40 78 -79 0
-80 41 0
-80 -1 0
-41 1 80 0
81 -62 0
81 -48 0
62 48 -81 0
82 -80 0
82 -81 0
80 81 -82 0
-83 -79 0
-83 82 0
79 -82 83 0
84 15 0
84 9 0
-15 -9 -84 0
85 84 0
85 -5 0
-84 5 -85 0
86 11 0
86 25 0
-11 -25 -86 0
87 24 0
87 -58 0
-24 58 -87 0
88 86 0
88 87 0
-86 -87 -88 0
-89 88 0
-89 16 0
-88 -16 89 0
90 -85 0
90 -89 0
85 89 -90 0
-91 41 0
-91 -4 0
-41 4 91 0
92 90 0
92 -91 0
-90 91 -92 0
-94 -78 0
-94 -93 0
78 93 94 0
-95 -2 0
-95 -17 0
2 17 95 0
96 8 0
96 -10 0
-8 10 -96 0
-95 96 -97 0
95 -96 -97 0
-95 -96 97 0
95 96 97 0
-97 -40 -98 0
97 40 -98 0
-97 40 98 0
97 -40 98 0
-34 -1 -99 0
34 1 -99 0
-34 1 99 0
34 -1 99 0
100 99 0
100 -73 0
-99 73 -100 0
101 -98 0
101 100 0
98 -100 -101 0
94 101 -102 0
-94 -101 -102 0
94 -101 102 0
-94 101 102 0
-103 -92 0
-103 -102 0
92 102 103 0
104 -15 0
104 -24 0
15 24 -104 0
-105 -104 0
-105 -5 0
104 5 105 0
106 16 0
106 -99 0
-16 99 -106 0
107 -106 0
107 48 0
106 -48 -107 0
-108 105 0
-108 107 0
-105 -107 108 0
58 109 -110 0
-58 -109 -110 0
58 -109 110 0
-58 109 110 0
111 110 0
111 1 0
-110 -1 -111 0
112 40 0
112 -48 0
-40 48 -112 0
-111 112 -113 0
111 -112 -113 0
-111 -112 113 0
111 112 113 0
-114 108 0
-114 113 0
-108 -113 114 0
-115 -42 0
-115 8 0
42 -8 115 0
-115 -26 -116 0
115 26 -116 0
-115 26 116 0
115 -26 116 0
-117 -24 0
-117 116 0
24 -116 117 0
87 5 -118 0
-87 -5 -118 0
87 -5 118 0
-87 5 118 0
-119 117 0
-119 118 0
-117 -118 119 0
-114 -119 -120 0
114 119 -120 0
-114 119 120 0
114 -119 120 0
-121 -103 0
-121 -120 0
103 120 121 0
83 121 -122 0
-83 -121 -122 0
83 -121 122 0
-83 121 122 0
-123 77 0
-123 -122 0
-77 122 123 0
-124 -71 0
-124 123 0
71 -123 124 0
-125 -57 0
-125 124 0
57 -124 125 0
126 38 0
126 125 0
-38 -125 -126 0
-102 31 -5 0
38 -2 -95 -58 7 81 77 69 52 -50 0
122 -44 -115 41 0
-25 -90 -62 -20 100 95 -8 0
37 -94 -69 116 -56 77 0
-124 -74 -31 68 -118 0
71 -42 39 123 -119 -84 30 110 -20 0
44 95 112 -19 118 0
113 57 -66 -83 -71 -20 0
-1 -118 -89 21 79 0
-51 58 -54 0
98 -87 89 -62 -96 0
12 125 -113 -50 -74 -103 -3 96 -28 0
120 -28 12 -84 -74 0
-123 -50 54 -79 -6 21 93 0
10 66 0
28 114 -107 -50 73 -48 -104 -118 115 -75 0
-8 104 0
52 66 1 115 0
55 -12 0
-109 -69 0
14 122 -24 -56 75 71 -64 -111 0
-95 124 -59 -53 42 10 -57 68 -54 65 0
38 40 77 -32 0
82 -32 71 -110 1 -46 0
-125 22 -23 -10 109 26 -118 -110 96 0
54 61 64 -80 -29 59 -91 -79 68 0
39 104 69 -26 93 -71 76 -82 7 118 0
77 88 119 -32 59 -49 -30 -120 0
-88 -69 -28 -108 57 -34 -32 -121 61 -35 0
-86 100 -20 0
-103 -121 -80 27 -109 -36 0
-9 73 82 0
63 -14 -57 45 0
87 75 77 101 42 -12 -26 118 0
113 -60 -98 13 17 85 -15 0
-65 79 -81 110 36 0
-60 -26 0
-26 -40 -34 -99 24 -92 0
7 -39 -66 92 4 48 0
-123 44 22 82 -74 0
63 -1 -20 0
-120 -19 4 -97 42 -20 91 0
28 -20 104 45 1 74 -80 119 0
-9 -8 90 75 21 -38 0
-27 105 74 -65 0
116 -110 60 -27 38 90 74 0
-54 17 -112 0
88 -98 42 -122 73 112 8 -107 -28 36 0
-33 32 -110 -101 7 123 34 0
-96 -118 -49 124 -14 -18 0
-46 -111 -21 0
46 -48 0
52 -124 -56 28 -26 0
-41 85 -65 -112 -78 96 13 0
35 38 52 98 -125 -57 78 0
86 -59 -13 69 56 -46 -77 -99 114 0
-77 -120 99 -81 -103 73 -61 -9 12 0
-69 89 -77 0
-84 -38 87 0
39 42 -21 26 -71 0
-107 -99 -106 34 93 -91 -57 -73 -19 0
-36 109 49 -5 -101 66 -111 -65 64 -77 0
-1 64 0
-54 83 0
48 -19 -7 71 -107 0
-79 16 1 -50 65 61 -110 60 -51 34 0
32 -6 80 -86 -87 -65 -9 -51 113 0
-8 -59 -56 126 65 0
126 0
